784 1512
1 2 4
1 29 3
2 3 1
2 30 4
3 4 1
3 31 1
4 5 4
4 32 1
5 6 2
5 33 1
6 7 1
6 34 5
7 8 5
7 35 1
8 9 2
8 36 1
9 10 3
9 37 1
10 11 1
10 38 1
11 12 1
11 39 3
12 13 3
12 40 1
13 14 4
13 41 4
14 15 4
14 42 3
15 16 5
15 43 3
16 17 3
16 44 3
17 18 1
17 45 4
18 19 5
18 46 1
19 20 4
19 47 2
20 21 3
20 48 2
21 22 2
21 49 5
22 23 2
22 50 3
23 24 3
23 51 4
24 25 2
24 52 4
25 26 1
25 53 1
26 27 5
26 54 2
27 28 2
27 55 4
28 56 2
29 30 3
29 57 3
30 31 1
30 58 1
31 32 1
31 59 5
32 33 4
32 60 4
33 34 5
33 61 2
34 35 4
34 62 1
35 36 2
35 63 2
36 37 2
36 64 2
37 38 2
37 65 5
38 39 1
38 66 2
39 40 3
39 67 2
40 41 3
40 68 1
41 42 4
41 69 5
42 43 4
42 70 1
43 44 3
43 71 1
44 45 5
44 72 3
45 46 5
45 73 3
46 47 3
46 74 1
47 48 1
47 75 4
48 49 3
48 76 5
49 50 1
49 77 3
50 51 5
50 78 5
51 52 3
51 79 2
52 53 1
52 80 2
53 54 4
53 81 4
54 55 1
54 82 4
55 56 2
55 83 3
56 84 3
57 58 2
57 85 2
58 59 5
58 86 3
59 60 1
59 87 3
60 61 1
60 88 1
61 62 5
61 89 4
62 63 4
62 90 3
63 64 5
63 91 2
64 65 4
64 92 3
65 66 2
65 93 1
66 67 5
66 94 2
67 68 4
67 95 3
68 69 4
68 96 5
69 70 1
69 97 3
70 71 2
70 98 2
71 72 5
71 99 1
72 73 2
72 100 3
73 74 3
73 101 5
74 75 2
74 102 5
75 76 3
75 103 2
76 77 4
76 104 3
77 78 5
77 105 5
78 79 3
78 106 3
79 80 1
79 107 2
80 81 4
80 108 5
81 82 5
81 109 2
82 83 5
82 110 4
83 84 4
83 111 3
84 112 1
85 86 2
85 113 3
86 87 3
86 114 3
87 88 3
87 115 5
88 89 3
88 116 5
89 90 1
89 117 4
90 91 3
90 118 3
91 92 5
91 119 1
92 93 2
92 120 2
93 94 2
93 121 5
94 95 3
94 122 5
95 96 2
95 123 5
96 97 1
96 124 2
97 98 1
97 125 2
98 99 2
98 126 1
99 100 2
99 127 5
100 101 4
100 128 4
101 102 2
101 129 3
102 103 3
102 130 5
103 104 4
103 131 5
104 105 4
104 132 2
105 106 3
105 133 2
106 107 4
106 134 4
107 108 3
107 135 4
108 109 3
108 136 2
109 110 3
109 137 1
110 111 2
110 138 5
111 112 4
111 139 1
112 140 5
113 114 1
113 141 1
114 115 5
114 142 5
115 116 5
115 143 5
116 117 2
116 144 1
117 118 5
117 145 1
118 119 5
118 146 5
119 120 1
119 147 5
120 121 5
120 148 4
121 122 3
121 149 5
122 123 4
122 150 5
123 124 2
123 151 5
124 125 3
124 152 5
125 126 2
125 153 4
126 127 4
126 154 3
127 128 2
127 155 5
128 129 4
128 156 4
129 130 3
129 157 1
130 131 3
130 158 4
131 132 3
131 159 4
132 133 3
132 160 2
133 134 1
133 161 3
134 135 4
134 162 5
135 136 3
135 163 3
136 137 5
136 164 4
137 138 1
137 165 3
138 139 5
138 166 5
139 140 3
139 167 2
140 168 4
141 142 5
141 169 3
142 143 4
142 170 1
143 144 1
143 171 3
144 145 5
144 172 5
145 146 3
145 173 5
146 147 2
146 174 3
147 148 1
147 175 1
148 149 1
148 176 1
149 150 2
149 177 5
150 151 3
150 178 1
151 152 2
151 179 4
152 153 5
152 180 3
153 154 2
153 181 5
154 155 4
154 182 2
155 156 4
155 183 2
156 157 4
156 184 4
157 158 4
157 185 2
158 159 5
158 186 3
159 160 5
159 187 4
160 161 1
160 188 5
161 162 1
161 189 2
162 163 5
162 190 5
163 164 2
163 191 3
164 165 3
164 192 3
165 166 3
165 193 5
166 167 5
166 194 2
167 168 2
167 195 1
168 196 1
169 170 4
169 197 5
170 171 5
170 198 4
171 172 5
171 199 4
172 173 3
172 200 3
173 174 4
173 201 2
174 175 2
174 202 1
175 176 3
175 203 3
176 177 5
176 204 2
177 178 2
177 205 1
178 179 2
178 206 5
179 180 5
179 207 3
180 181 3
180 208 5
181 182 4
181 209 3
182 183 5
182 210 4
183 184 4
183 211 3
184 185 4
184 212 5
185 186 1
185 213 1
186 187 2
186 214 2
187 188 3
187 215 3
188 189 2
188 216 2
189 190 1
189 217 1
190 191 2
190 218 5
191 192 5
191 219 1
192 193 1
192 220 3
193 194 3
193 221 2
194 195 4
194 222 4
195 196 4
195 223 2
196 224 2
197 198 1
197 225 2
198 199 3
198 226 5
199 200 3
199 227 4
200 201 4
200 228 2
201 202 5
201 229 1
202 203 4
202 230 3
203 204 4
203 231 4
204 205 2
204 232 2
205 206 4
205 233 3
206 207 3
206 234 2
207 208 5
207 235 4
208 209 2
208 236 5
209 210 5
209 237 4
210 211 2
210 238 4
211 212 1
211 239 1
212 213 5
212 240 3
213 214 4
213 241 4
214 215 3
214 242 1
215 216 1
215 243 2
216 217 5
216 244 3
217 218 1
217 245 3
218 219 2
218 246 4
219 220 1
219 247 4
220 221 1
220 248 2
221 222 5
221 249 5
222 223 1
222 250 1
223 224 2
223 251 4
224 252 3
225 226 3
225 253 3
226 227 3
226 254 3
227 228 4
227 255 2
228 229 2
228 256 2
229 230 2
229 257 5
230 231 1
230 258 1
231 232 4
231 259 4
232 233 5
232 260 2
233 234 1
233 261 3
234 235 4
234 262 2
235 236 1
235 263 3
236 237 1
236 264 4
237 238 3
237 265 1
238 239 1
238 266 5
239 240 3
239 267 1
240 241 2
240 268 4
241 242 2
241 269 3
242 243 3
242 270 3
243 244 5
243 271 3
244 245 4
244 272 5
245 246 1
245 273 1
246 247 2
246 274 3
247 248 1
247 275 2
248 249 2
248 276 2
249 250 3
249 277 4
250 251 4
250 278 2
251 252 2
251 279 4
252 280 1
253 254 4
253 281 5
254 255 2
254 282 4
255 256 3
255 283 5
256 257 2
256 284 2
257 258 3
257 285 4
258 259 3
258 286 3
259 260 4
259 287 4
260 261 1
260 288 1
261 262 5
261 289 5
262 263 4
262 290 1
263 264 4
263 291 4
264 265 3
264 292 1
265 266 2
265 293 3
266 267 5
266 294 5
267 268 3
267 295 1
268 269 3
268 296 2
269 270 5
269 297 2
270 271 1
270 298 2
271 272 3
271 299 4
272 273 2
272 300 4
273 274 4
273 301 2
274 275 5
274 302 1
275 276 4
275 303 3
276 277 3
276 304 4
277 278 3
277 305 5
278 279 3
278 306 4
279 280 2
279 307 2
280 308 3
281 282 4
281 309 3
282 283 1
282 310 3
283 284 5
283 311 2
284 285 3
284 312 3
285 286 1
285 313 5
286 287 4
286 314 5
287 288 1
287 315 3
288 289 3
288 316 2
289 290 2
289 317 3
290 291 1
290 318 5
291 292 1
291 319 4
292 293 4
292 320 2
293 294 3
293 321 1
294 295 1
294 322 5
295 296 4
295 323 5
296 297 5
296 324 5
297 298 5
297 325 4
298 299 1
298 326 4
299 300 2
299 327 2
300 301 2
300 328 4
301 302 3
301 329 3
302 303 3
302 330 5
303 304 3
303 331 4
304 305 1
304 332 5
305 306 2
305 333 5
306 307 5
306 334 1
307 308 2
307 335 2
308 336 1
309 310 1
309 337 3
310 311 4
310 338 5
311 312 5
311 339 3
312 313 1
312 340 3
313 314 2
313 341 4
314 315 1
314 342 4
315 316 3
315 343 5
316 317 3
316 344 4
317 318 2
317 345 2
318 319 1
318 346 1
319 320 1
319 347 2
320 321 2
320 348 2
321 322 3
321 349 2
322 323 4
322 350 2
323 324 2
323 351 3
324 325 5
324 352 2
325 326 5
325 353 5
326 327 2
326 354 2
327 328 2
327 355 4
328 329 4
328 356 5
329 330 2
329 357 1
330 331 4
330 358 1
331 332 2
331 359 5
332 333 2
332 360 4
333 334 4
333 361 1
334 335 4
334 362 5
335 336 2
335 363 5
336 364 5
337 338 5
337 365 2
338 339 4
338 366 2
339 340 4
339 367 5
340 341 2
340 368 1
341 342 5
341 369 5
342 343 4
342 370 5
343 344 1
343 371 3
344 345 3
344 372 5
345 346 1
345 373 1
346 347 5
346 374 3
347 348 2
347 375 2
348 349 3
348 376 5
349 350 3
349 377 5
350 351 2
350 378 3
351 352 5
351 379 5
352 353 1
352 380 3
353 354 2
353 381 4
354 355 1
354 382 2
355 356 1
355 383 3
356 357 5
356 384 4
357 358 5
357 385 5
358 359 2
358 386 2
359 360 1
359 387 5
360 361 3
360 388 1
361 362 1
361 389 2
362 363 4
362 390 4
363 364 3
363 391 2
364 392 1
365 366 5
365 393 5
366 367 4
366 394 5
367 368 5
367 395 1
368 369 1
368 396 4
369 370 4
369 397 2
370 371 3
370 398 1
371 372 3
371 399 4
372 373 2
372 400 5
373 374 2
373 401 1
374 375 2
374 402 1
375 376 1
375 403 2
376 377 3
376 404 4
377 378 5
377 405 3
378 379 3
378 406 5
379 380 3
379 407 5
380 381 1
380 408 5
381 382 3
381 409 2
382 383 1
382 410 2
383 384 1
383 411 2
384 385 4
384 412 3
385 386 5
385 413 1
386 387 5
386 414 2
387 388 2
387 415 1
388 389 1
388 416 3
389 390 2
389 417 3
390 391 3
390 418 3
391 392 1
391 419 3
392 420 3
393 394 4
393 421 3
394 395 2
394 422 3
395 396 2
395 423 3
396 397 1
396 424 1
397 398 2
397 425 5
398 399 3
398 426 5
399 400 5
399 427 5
400 401 3
400 428 4
401 402 1
401 429 5
402 403 2
402 430 1
403 404 4
403 431 3
404 405 1
404 432 3
405 406 4
405 433 2
406 407 3
406 434 3
407 408 4
407 435 1
408 409 2
408 436 1
409 410 5
409 437 2
410 411 5
410 438 2
411 412 5
411 439 4
412 413 5
412 440 5
413 414 4
413 441 4
414 415 5
414 442 5
415 416 2
415 443 5
416 417 3
416 444 1
417 418 2
417 445 3
418 419 3
418 446 5
419 420 1
419 447 5
420 448 2
421 422 1
421 449 4
422 423 2
422 450 5
423 424 5
423 451 2
424 425 3
424 452 3
425 426 1
425 453 1
426 427 3
426 454 1
427 428 1
427 455 4
428 429 4
428 456 4
429 430 3
429 457 2
430 431 2
430 458 3
431 432 2
431 459 1
432 433 4
432 460 1
433 434 3
433 461 2
434 435 1
434 462 1
435 436 1
435 463 1
436 437 2
436 464 1
437 438 2
437 465 5
438 439 3
438 466 4
439 440 3
439 467 2
440 441 4
440 468 5
441 442 2
441 469 2
442 443 3
442 470 3
443 444 3
443 471 3
444 445 1
444 472 3
445 446 4
445 473 1
446 447 1
446 474 4
447 448 2
447 475 3
448 476 1
449 450 4
449 477 3
450 451 3
450 478 5
451 452 2
451 479 5
452 453 5
452 480 1
453 454 4
453 481 4
454 455 2
454 482 1
455 456 2
455 483 4
456 457 1
456 484 1
457 458 5
457 485 1
458 459 5
458 486 5
459 460 2
459 487 1
460 461 3
460 488 1
461 462 4
461 489 3
462 463 4
462 490 4
463 464 4
463 491 5
464 465 2
464 492 5
465 466 1
465 493 2
466 467 5
466 494 1
467 468 4
467 495 5
468 469 5
468 496 4
469 470 4
469 497 2
470 471 5
470 498 1
471 472 5
471 499 2
472 473 3
472 500 5
473 474 2
473 501 3
474 475 4
474 502 2
475 476 2
475 503 2
476 504 1
477 478 2
477 505 2
478 479 1
478 506 4
479 480 5
479 507 4
480 481 3
480 508 4
481 482 2
481 509 4
482 483 4
482 510 4
483 484 3
483 511 1
484 485 2
484 512 3
485 486 5
485 513 3
486 487 5
486 514 2
487 488 1
487 515 5
488 489 5
488 516 3
489 490 2
489 517 2
490 491 1
490 518 4
491 492 2
491 519 4
492 493 3
492 520 1
493 494 4
493 521 3
494 495 4
494 522 2
495 496 4
495 523 3
496 497 5
496 524 5
497 498 3
497 525 3
498 499 3
498 526 2
499 500 3
499 527 4
500 501 5
500 528 2
501 502 5
501 529 5
502 503 3
502 530 3
503 504 4
503 531 4
504 532 5
505 506 4
505 533 4
506 507 5
506 534 3
507 508 2
507 535 1
508 509 1
508 536 3
509 510 4
509 537 3
510 511 2
510 538 5
511 512 2
511 539 4
512 513 2
512 540 2
513 514 3
513 541 2
514 515 5
514 542 2
515 516 2
515 543 2
516 517 2
516 544 3
517 518 1
517 545 4
518 519 1
518 546 2
519 520 4
519 547 4
520 521 1
520 548 1
521 522 2
521 549 1
522 523 4
522 550 4
523 524 1
523 551 5
524 525 4
524 552 5
525 526 5
525 553 4
526 527 4
526 554 2
527 528 1
527 555 5
528 529 4
528 556 2
529 530 3
529 557 3
530 531 2
530 558 3
531 532 2
531 559 4
532 560 5
533 534 4
533 561 2
534 535 1
534 562 1
535 536 2
535 563 2
536 537 2
536 564 3
537 538 2
537 565 2
538 539 1
538 566 2
539 540 5
539 567 5
540 541 3
540 568 3
541 542 1
541 569 1
542 543 3
542 570 3
543 544 1
543 571 5
544 545 4
544 572 4
545 546 5
545 573 5
546 547 5
546 574 2
547 548 1
547 575 3
548 549 1
548 576 4
549 550 5
549 577 2
550 551 4
550 578 5
551 552 1
551 579 5
552 553 5
552 580 5
553 554 3
553 581 3
554 555 3
554 582 1
555 556 2
555 583 5
556 557 2
556 584 1
557 558 1
557 585 3
558 559 4
558 586 2
559 560 4
559 587 3
560 588 4
561 562 5
561 589 2
562 563 5
562 590 2
563 564 3
563 591 1
564 565 3
564 592 2
565 566 3
565 593 4
566 567 1
566 594 3
567 568 2
567 595 4
568 569 2
568 596 1
569 570 4
569 597 4
570 571 2
570 598 4
571 572 5
571 599 4
572 573 2
572 600 4
573 574 5
573 601 1
574 575 3
574 602 5
575 576 5
575 603 5
576 577 2
576 604 4
577 578 2
577 605 3
578 579 1
578 606 1
579 580 5
579 607 2
580 581 1
580 608 2
581 582 5
581 609 1
582 583 2
582 610 4
583 584 2
583 611 1
584 585 5
584 612 4
585 586 5
585 613 2
586 587 4
586 614 3
587 588 4
587 615 3
588 616 5
589 590 3
589 617 4
590 591 2
590 618 3
591 592 3
591 619 5
592 593 5
592 620 1
593 594 5
593 621 2
594 595 5
594 622 5
595 596 4
595 623 3
596 597 3
596 624 1
597 598 2
597 625 5
598 599 2
598 626 5
599 600 4
599 627 4
600 601 1
600 628 3
601 602 4
601 629 4
602 603 1
602 630 4
603 604 1
603 631 2
604 605 5
604 632 1
605 606 5
605 633 1
606 607 4
606 634 4
607 608 3
607 635 1
608 609 1
608 636 2
609 610 5
609 637 2
610 611 1
610 638 5
611 612 2
611 639 5
612 613 2
612 640 4
613 614 5
613 641 3
614 615 3
614 642 5
615 616 4
615 643 2
616 644 5
617 618 4
617 645 3
618 619 3
618 646 2
619 620 2
619 647 5
620 621 2
620 648 4
621 622 3
621 649 1
622 623 5
622 650 5
623 624 2
623 651 4
624 625 4
624 652 1
625 626 4
625 653 1
626 627 5
626 654 2
627 628 5
627 655 2
628 629 4
628 656 4
629 630 4
629 657 4
630 631 2
630 658 4
631 632 4
631 659 4
632 633 1
632 660 2
633 634 1
633 661 4
634 635 3
634 662 4
635 636 3
635 663 5
636 637 3
636 664 2
637 638 3
637 665 2
638 639 1
638 666 3
639 640 4
639 667 1
640 641 5
640 668 3
641 642 5
641 669 5
642 643 3
642 670 1
643 644 5
643 671 4
644 672 5
645 646 1
645 673 4
646 647 3
646 674 3
647 648 1
647 675 3
648 649 1
648 676 4
649 650 5
649 677 2
650 651 2
650 678 2
651 652 5
651 679 1
652 653 5
652 680 3
653 654 2
653 681 4
654 655 5
654 682 5
655 656 2
655 683 4
656 657 2
656 684 3
657 658 3
657 685 3
658 659 3
658 686 1
659 660 2
659 687 1
660 661 3
660 688 1
661 662 5
661 689 3
662 663 5
662 690 4
663 664 2
663 691 2
664 665 1
664 692 4
665 666 1
665 693 3
666 667 4
666 694 4
667 668 3
667 695 4
668 669 4
668 696 1
669 670 5
669 697 3
670 671 1
670 698 5
671 672 1
671 699 2
672 700 4
673 674 2
673 701 2
674 675 3
674 702 2
675 676 1
675 703 1
676 677 1
676 704 1
677 678 2
677 705 4
678 679 5
678 706 3
679 680 5
679 707 3
680 681 1
680 708 4
681 682 1
681 709 1
682 683 4
682 710 1
683 684 3
683 711 4
684 685 3
684 712 1
685 686 2
685 713 4
686 687 1
686 714 3
687 688 3
687 715 2
688 689 5
688 716 1
689 690 2
689 717 1
690 691 4
690 718 2
691 692 4
691 719 1
692 693 3
692 720 2
693 694 4
693 721 5
694 695 3
694 722 2
695 696 1
695 723 2
696 697 1
696 724 4
697 698 2
697 725 3
698 699 5
698 726 1
699 700 1
699 727 3
700 728 4
701 702 1
701 729 2
702 703 2
702 730 1
703 704 1
703 731 4
704 705 3
704 732 2
705 706 1
705 733 2
706 707 1
706 734 5
707 708 4
707 735 4
708 709 1
708 736 4
709 710 1
709 737 1
710 711 1
710 738 2
711 712 5
711 739 2
712 713 2
712 740 2
713 714 2
713 741 2
714 715 3
714 742 3
715 716 1
715 743 5
716 717 2
716 744 4
717 718 2
717 745 2
718 719 4
718 746 3
719 720 3
719 747 1
720 721 1
720 748 3
721 722 5
721 749 4
722 723 3
722 750 5
723 724 2
723 751 5
724 725 3
724 752 4
725 726 5
725 753 4
726 727 3
726 754 2
727 728 2
727 755 1
728 756 5
729 730 5
729 757 3
730 731 5
730 758 5
731 732 3
731 759 3
732 733 1
732 760 5
733 734 5
733 761 2
734 735 1
734 762 5
735 736 3
735 763 4
736 737 3
736 764 5
737 738 3
737 765 4
738 739 5
738 766 5
739 740 1
739 767 4
740 741 1
740 768 1
741 742 4
741 769 2
742 743 2
742 770 2
743 744 1
743 771 5
744 745 2
744 772 4
745 746 5
745 773 5
746 747 5
746 774 5
747 748 3
747 775 5
748 749 3
748 776 5
749 750 4
749 777 4
750 751 1
750 778 4
751 752 3
751 779 4
752 753 4
752 780 1
753 754 4
753 781 2
754 755 2
754 782 1
755 756 3
755 783 3
756 784 3
757 758 1
758 759 2
759 760 1
760 761 1
761 762 2
762 763 1
763 764 4
764 765 2
765 766 1
766 767 4
767 768 1
768 769 1
769 770 4
770 771 5
771 772 1
772 773 2
773 774 5
774 775 1
775 776 1
776 777 5
777 778 4
778 779 3
779 780 1
780 781 1
781 782 5
782 783 4
783 784 3
